(set-logic QF_BV)
(declare-fun _substvar_1087_ () (_ BitVec 32))
(declare-fun _substvar_1320_ () (_ BitVec 32))
(declare-fun _substvar_1297_ () (_ BitVec 32))
(declare-fun _substvar_1268_ () (_ BitVec 32))
(declare-fun _substvar_1093_ () (_ BitVec 32))
(declare-fun _substvar_1185_ () (_ BitVec 32))
(assert (let ((?v_58 (bvor (bvshl (bvadd _substvar_1268_ _substvar_1320_) _substvar_1185_) (_ bv0 32)))) (and true true (bvult ?v_58 _substvar_1087_) true true true true true true true true true true true true true true true true true true true true true true true true true true true true true true true true true true true true true true true true true true true true true true true true true true true true true true true true true true true true true true true true true true true true true true true true true true true true true true true true true true true true (bvult _substvar_1093_ _substvar_1297_) true true true true true true true true true true true true true true true true true true true true true true true true true true true true true true true true true true (bvule _substvar_1087_ _substvar_1093_) true true true true true true true true true true true true true true (bvult _substvar_1297_ ?v_58) true true true true true true true true true true true)))
(check-sat)
(exit)
